c Result of efficient AIG-to-CNF conversion using package CNF
p cnf 569 2083
-2 3 415 486 0
-2 3 415 -467 0
2 -3 0
2 -415 0
2 467 -486 0
-3 4 179 -350 -383 0
-3 -4 -179 -350 -383 0
-3 4 179 350 383 0
-3 -4 -179 350 383 0
3 4 -179 0
3 -4 179 0
3 350 -383 0
3 -350 383 0
4 564 -5 144 0
4 -564 144 -155 0
-4 -144 0
-4 -564 155 0
-4 564 5 0
5 565 -6 0
5 -565 -116 129 0
-5 -565 116 0
-5 565 6 0
-5 -565 -129 0
6 566 -7 0
6 -566 -98 0
-6 -566 98 0
-6 566 7 0
7 567 -8 0
7 -567 -72 0
-7 -567 72 0
-7 567 8 0
8 568 -9 0
8 -568 -47 0
-8 -568 47 0
-8 568 9 0
9 532 -10 -35 0
9 -532 -10 -20 0
-9 10 0
-9 -532 20 0
-9 532 35 0
10 -11 -14 -16 -18 0
-10 18 0
-10 11 0
-10 16 0
-10 14 0
11 -512 -515 -528 -12 0
-11 12 0
-11 512 0
-11 528 0
-11 515 0
12 -518 -519 -529 -13 0
-12 13 0
-12 518 0
-12 529 0
-12 519 0
13 -513 -514 -517 -531 0
-13 531 0
-13 513 0
-13 517 0
-13 514 0
14 -505 -516 -530 -15 0
-14 15 0
-14 505 0
-14 530 0
-14 516 0
15 -506 -509 -520 -521 0
-15 521 0
-15 506 0
-15 520 0
-15 509 0
16 -510 -522 -523 -17 0
-16 17 0
-16 510 0
-16 523 0
-16 522 0
17 -507 -508 0
-17 507 0
-17 508 0
18 -525 -526 -527 -19 0
-18 19 0
-18 525 0
-18 527 0
-18 526 0
19 -511 -524 0
-19 511 0
-19 524 0
-20 -533 21 0
-20 533 28 0
20 -533 -21 0
20 533 -28 0
-21 -534 22 0
-21 534 25 0
21 -534 -22 0
21 534 -25 0
-22 -535 24 0
-22 535 23 0
22 535 -23 0
22 -535 -24 0
23 -511 536 0
23 -510 -536 0
-23 511 536 0
-23 510 -536 0
24 -509 536 0
24 -508 -536 0
-24 509 536 0
-24 508 -536 0
25 -535 -26 0
25 535 -27 0
-25 535 27 0
-25 -535 26 0
26 -513 536 0
26 -512 -536 0
-26 513 536 0
-26 512 -536 0
27 -515 536 0
27 -514 -536 0
-27 515 536 0
-27 514 -536 0
28 -534 -29 0
28 534 -32 0
-28 534 32 0
-28 -534 29 0
29 -535 -30 0
29 535 -31 0
-29 535 31 0
-29 -535 30 0
30 -517 536 0
30 -516 -536 0
-30 517 536 0
-30 516 -536 0
31 -519 536 0
31 -518 -536 0
-31 519 536 0
-31 518 -536 0
32 -535 -33 0
32 535 -34 0
-32 535 34 0
-32 -535 33 0
33 -521 536 0
33 -520 -536 0
-33 521 536 0
-33 520 -536 0
34 -523 536 0
34 -522 -536 0
-34 523 536 0
-34 522 -536 0
35 -533 -36 0
35 533 -43 0
-35 -533 36 0
-35 533 43 0
36 -534 -37 0
36 534 -40 0
-36 534 40 0
-36 -534 37 0
37 -535 -38 0
37 535 -39 0
-37 535 39 0
-37 -535 38 0
38 -525 536 0
38 -524 -536 0
-38 525 536 0
-38 524 -536 0
39 -527 536 0
39 -526 -536 0
-39 527 536 0
-39 526 -536 0
40 -535 -41 0
40 535 -42 0
-40 535 42 0
-40 -535 41 0
41 -529 536 0
41 -528 -536 0
-41 529 536 0
-41 528 -536 0
42 -531 536 0
42 -530 -536 0
-42 531 536 0
-42 530 -536 0
-43 -534 45 0
-43 534 44 0
43 534 -44 0
43 -534 -45 0
44 -535 -536 0
-44 535 0
-44 536 0
45 -535 -46 0
45 -534 535 -536 0
-45 535 536 0
-45 -535 46 0
-45 534 535 0
46 -533 536 0
46 -532 -536 0
-46 533 536 0
-46 532 -536 0
47 532 -10 -63 0
47 -532 -10 -48 0
-47 10 0
-47 -532 48 0
-47 532 63 0
-48 -533 49 0
-48 533 56 0
48 -533 -49 0
48 533 -56 0
-49 -534 53 0
-49 534 50 0
49 534 -50 0
49 -534 -53 0
50 -535 -51 0
50 535 -52 0
-50 535 52 0
-50 -535 51 0
51 -514 536 0
51 -513 -536 0
-51 514 536 0
-51 513 -536 0
52 -516 536 0
52 -515 -536 0
-52 516 536 0
-52 515 -536 0
53 -535 -54 0
53 535 -55 0
-53 535 55 0
-53 -535 54 0
54 -510 536 0
54 -509 -536 0
-54 510 536 0
-54 509 -536 0
55 -512 536 0
55 -511 -536 0
-55 512 536 0
-55 511 -536 0
56 -534 -57 0
56 534 -60 0
-56 534 60 0
-56 -534 57 0
57 -535 -58 0
57 535 -59 0
-57 535 59 0
-57 -535 58 0
58 -518 536 0
58 -517 -536 0
-58 518 536 0
-58 517 -536 0
59 -520 536 0
59 -519 -536 0
-59 520 536 0
-59 519 -536 0
60 -535 -61 0
60 535 -62 0
-60 535 62 0
-60 -535 61 0
61 -522 536 0
61 -521 -536 0
-61 522 536 0
-61 521 -536 0
62 -524 536 0
62 -523 -536 0
-62 524 536 0
-62 523 -536 0
63 -533 -64 0
63 533 -71 0
-63 533 71 0
-63 -533 64 0
64 -534 -65 0
64 534 -68 0
-64 534 68 0
-64 -534 65 0
65 -535 -66 0
65 535 -67 0
-65 535 67 0
-65 -535 66 0
66 -526 536 0
66 -525 -536 0
-66 526 536 0
-66 525 -536 0
67 -528 536 0
67 -527 -536 0
-67 528 536 0
-67 527 -536 0
68 -535 -69 0
68 535 -70 0
-68 535 70 0
-68 -535 69 0
69 -530 536 0
69 -529 -536 0
-69 530 536 0
-69 529 -536 0
70 -532 536 0
70 -531 -536 0
-70 532 536 0
-70 531 -536 0
71 -534 -535 536 0
71 -533 -534 -535 0
-71 535 0
-71 534 0
-71 533 -536 0
72 568 -73 0
72 -568 -85 0
-72 -568 85 0
-72 568 73 0
73 532 -10 -80 0
73 -532 -10 -74 0
-73 10 0
-73 -532 74 0
-73 532 80 0
-74 533 77 0
-74 -533 75 76 0
74 -533 -75 0
74 533 -77 0
74 -533 -76 0
75 534 535 -30 0
75 534 -535 -27 0
-75 -534 0
-75 -535 27 0
-75 535 30 0
76 -534 535 -26 0
76 -534 -535 -23 0
-76 534 0
-76 -535 23 0
-76 535 26 0
77 -534 -78 0
77 534 -79 0
-77 534 79 0
-77 -534 78 0
78 -535 -31 0
78 535 -33 0
-78 535 33 0
-78 -535 31 0
79 -535 -34 0
79 535 -38 0
-79 535 38 0
-79 -535 34 0
80 -533 -81 0
80 533 -84 0
-80 533 84 0
-80 -533 81 0
81 -534 -82 0
81 534 -83 0
-81 534 83 0
-81 -534 82 0
82 -535 -39 0
82 535 -41 0
-82 535 41 0
-82 -535 39 0
83 -535 -42 0
83 535 -46 0
-83 535 46 0
-83 -535 42 0
84 -534 -535 0
84 -534 -536 0
-84 534 0
-84 535 536 0
85 532 -10 -93 0
85 -532 -10 -86 0
-85 10 0
-85 532 93 0
-85 -532 86 0
-86 -533 87 0
-86 533 90 0
86 -533 -87 0
86 533 -90 0
-87 -534 89 0
-87 534 88 0
87 534 -88 0
87 -534 -89 0
88 -535 -52 0
88 535 -58 0
-88 535 58 0
-88 -535 52 0
89 535 -51 0
89 -535 -55 0
-89 -535 55 0
-89 535 51 0
90 -534 -91 0
90 534 -92 0
-90 534 92 0
-90 -534 91 0
91 -535 -59 0
91 535 -61 0
-91 535 61 0
-91 -535 59 0
92 -535 -62 0
92 535 -66 0
-92 535 66 0
-92 -535 62 0
-93 -533 94 0
-93 533 44 0
-93 533 534 0
93 -533 -94 0
93 533 -534 -44 0
94 -534 -95 0
94 534 -96 0
-94 534 96 0
-94 -534 95 0
95 -535 -67 0
95 535 -69 0
-95 535 69 0
-95 -535 67 0
96 -535 -70 0
96 535 -97 0
-96 535 97 0
-96 -535 70 0
97 -534 536 0
97 -533 -536 0
-97 534 536 0
-97 533 -536 0
98 567 -99 0
98 -567 -110 0
-98 -567 110 0
-98 567 99 0
99 568 -100 0
99 -568 -106 0
-99 -568 106 0
-99 568 100 0
100 532 -10 -104 0
100 -532 -10 -101 0
-100 10 0
-100 532 104 0
-100 -532 101 0
-101 -533 102 0
-101 533 103 0
101 -533 -102 0
101 533 -103 0
-102 534 29 0
-102 -534 25 0
102 -534 -25 0
102 534 -29 0
103 -534 -32 0
103 534 -37 0
-103 534 37 0
-103 -534 32 0
-104 -533 105 0
-104 533 44 0
-104 533 534 0
104 -533 -105 0
104 533 -534 -44 0
105 -534 -40 0
105 534 -535 -46 0
-105 -534 40 0
-105 534 535 0
-105 534 46 0
106 -532 -10 0
106 -10 -107 0
-106 10 0
-106 532 107 0
107 -533 -108 0
-107 533 0
-107 108 0
108 -534 -68 0
108 534 -109 0
-108 534 109 0
-108 -534 68 0
109 -533 -535 -536 0
109 -534 -535 536 0
-109 535 0
-109 533 -536 0
-109 534 536 0
110 568 -111 0
110 -568 -114 0
-110 -568 114 0
-110 568 111 0
111 -532 -10 0
111 -10 -112 0
-111 10 0
-111 532 112 0
112 -533 -113 0
-112 533 0
-112 113 0
113 -534 -83 0
113 534 -535 536 0
113 534 535 -536 0
-113 -534 83 0
-113 534 -535 -536 0
-113 534 535 536 0
114 -532 -10 0
114 -533 -10 -115 0
-114 10 0
-114 532 115 0
-114 532 533 0
-115 -534 96 0
-115 534 44 0
115 534 -44 0
115 -534 -96 0
-116 566 -567 122 0
-116 566 567 117 0
116 -566 0
116 -567 -122 0
116 567 -117 0
117 568 -118 0
117 -568 -120 0
-117 -568 120 0
-117 568 118 0
118 -532 -10 0
118 -10 -119 0
-118 10 0
-118 532 119 0
119 -533 -43 0
-119 533 0
-119 43 0
120 -532 -10 0
120 -10 -121 0
-120 10 0
-120 532 121 0
121 -533 -534 -535 0
-121 533 0
-121 534 0
-121 535 0
122 568 -123 0
122 -568 -126 0
-122 -568 126 0
-122 568 123 0
123 532 -10 -125 0
123 -532 -10 -124 0
-123 10 0
-123 -532 124 0
-123 532 125 0
124 -533 -77 0
124 533 -81 0
-124 533 81 0
-124 -533 77 0
125 -533 -534 -536 0
125 -533 -534 -535 0
-125 533 0
-125 534 0
-125 535 536 0
126 532 -10 -127 0
126 -532 -10 -128 0
-126 10 0
-126 -532 128 0
-126 532 127 0
127 -533 -534 -44 0
-127 533 0
-127 534 0
-127 44 0
-128 533 94 0
-128 -533 90 0
128 -533 -90 0
128 533 -94 0
129 -566 -567 137 0
129 -566 567 130 0
-129 566 0
-129 -567 -137 0
-129 567 -130 0
130 568 -131 0
130 -568 -133 0
-130 -568 133 0
-130 568 131 0
131 532 -10 -127 0
131 -532 -10 -132 0
-131 10 0
-131 -532 132 0
-131 532 127 0
-132 533 105 0
-132 -533 103 0
132 -533 -103 0
132 533 -105 0
133 -134 -135 0
-133 134 0
-133 135 0
134 -532 -10 0
-134 532 0
-134 10 0
135 533 -108 0
135 -533 -136 0
-135 -533 136 0
-135 533 108 0
136 -534 -60 0
136 534 -65 0
-136 534 65 0
-136 -534 60 0
137 568 -138 0
137 -568 -141 0
-137 -568 141 0
-137 568 138 0
138 -134 -139 0
-138 134 0
-138 139 0
139 533 -113 0
139 -533 -140 0
-139 -533 140 0
-139 533 113 0
140 -534 -79 0
140 534 -82 0
-140 534 82 0
-140 -534 79 0
141 -134 -142 0
-141 134 0
-141 142 0
142 -533 -143 0
142 533 -115 0
-142 533 115 0
-142 -533 143 0
143 -534 -92 0
143 534 -95 0
-143 534 95 0
-143 -534 92 0
-144 145 151 153 154 0
144 -154 0
144 -145 0
144 -153 0
144 -151 0
-145 561 562 146 148 0
145 -561 0
145 -148 0
145 -146 0
145 -562 0
-146 553 559 560 147 0
146 -147 0
146 -560 0
146 -553 0
146 -559 0
-147 557 558 563 0
147 -557 0
147 -563 0
147 -558 0
-148 549 550 149 150 0
148 -549 0
148 -150 0
148 -149 0
148 -550 0
-149 554 555 556 0
149 -554 0
149 -556 0
149 -555 0
-150 545 546 551 552 0
150 -552 0
150 -551 0
150 -545 0
150 -546 0
-151 543 547 548 152 0
151 -152 0
151 -548 0
151 -543 0
151 -547 0
-152 541 542 0
152 -541 0
152 -542 0
-153 537 544 0
153 -537 0
153 -544 0
-154 538 539 540 0
154 -538 0
154 -540 0
154 -539 0
155 -565 -170 0
155 565 -156 163 0
-155 565 156 0
-155 -565 170 0
-155 565 -163 0
-156 566 -567 160 0
-156 566 567 157 0
156 -566 0
156 -567 -160 0
156 567 -157 0
157 568 -158 0
157 -568 -159 0
-157 -568 159 0
-157 568 158 0
158 -35 -134 0
-158 35 0
-158 134 0
159 -63 -134 0
-159 63 0
-159 134 0
160 568 -161 0
160 -568 -162 0
-160 -568 162 0
-160 568 161 0
161 -80 -134 0
-161 80 0
-161 134 0
162 -93 -134 0
-162 93 0
-162 134 0
163 -566 -567 168 0
163 -566 567 164 0
-163 566 0
-163 -567 -168 0
-163 567 -164 0
164 -568 166 0
164 -165 166 0
-164 -166 0
-164 568 165 0
165 -104 -134 0
-165 104 0
-165 134 0
166 -568 167 0
-166 568 0
-166 -167 0
167 -107 -134 0
-167 107 0
-167 134 0
168 -568 166 0
168 166 -169 0
-168 -166 0
-168 568 169 0
169 -112 -134 0
-169 112 0
-169 134 0
170 566 -171 0
170 -566 567 -178 0
-170 -566 -567 0
-170 566 171 0
-170 -566 178 0
171 567 -172 0
171 -567 -175 0
-171 -567 175 0
-171 567 172 0
172 568 -173 0
172 -568 -174 0
-172 -568 174 0
-172 568 173 0
173 -119 -134 0
-173 119 0
-173 134 0
174 -533 -534 -535 -134 0
-174 134 0
-174 533 0
-174 535 0
-174 534 0
175 568 -176 0
175 -568 -177 0
-175 -568 177 0
-175 568 176 0
176 -125 -134 0
-176 125 0
-176 134 0
177 -127 -134 0
-177 127 0
-177 134 0
178 568 -177 0
-178 -568 0
-178 177 0
179 532 -10 -326 0
179 -532 -10 -180 0
-179 10 0
-179 -532 180 0
-179 532 326 0
180 -533 -181 0
180 533 298 -313 0
-180 533 313 0
-180 -533 181 0
-180 533 -298 0
181 -534 -182 0
181 534 -270 0
-181 534 270 0
-181 -534 182 0
182 -535 -183 0
182 535 -241 0
-182 535 241 0
-182 -535 183 0
183 -536 -184 0
183 536 -213 0
-183 536 213 0
-183 -536 184 0
184 -564 144 -200 0
184 564 144 -185 0
-184 -144 0
-184 -564 200 0
-184 564 185 0
-185 565 186 0
-185 -565 193 0
185 -565 -193 0
185 565 -186 0
-186 566 187 0
-186 -566 190 0
186 -566 -190 0
186 566 -187 0
-187 567 189 0
-187 -567 188 0
187 -567 -188 0
187 567 -189 0
188 -511 -568 0
188 -510 568 0
-188 510 568 0
-188 511 -568 0
189 -509 -568 0
189 -508 568 0
-189 508 568 0
-189 509 -568 0
190 567 -191 0
190 -567 -192 0
-190 -567 192 0
-190 567 191 0
191 -513 -568 0
191 -512 568 0
-191 512 568 0
-191 513 -568 0
192 -515 -568 0
192 -514 568 0
-192 514 568 0
-192 515 -568 0
193 566 -194 0
193 -566 -197 0
-193 -566 197 0
-193 566 194 0
194 567 -195 0
194 -567 -196 0
-194 -567 196 0
-194 567 195 0
195 -517 -568 0
195 -516 568 0
-195 516 568 0
-195 517 -568 0
196 -519 -568 0
196 -518 568 0
-196 518 568 0
-196 519 -568 0
197 567 -198 0
197 -567 -199 0
-197 -567 199 0
-197 567 198 0
198 -521 -568 0
198 -520 568 0
-198 520 568 0
-198 521 -568 0
199 -523 -568 0
199 -522 568 0
-199 522 568 0
-199 523 -568 0
200 565 -201 0
200 -565 -208 0
-200 -565 208 0
-200 565 201 0
201 566 -202 0
201 -566 -205 0
-201 -566 205 0
-201 566 202 0
202 567 -203 0
202 -567 -204 0
-202 -567 204 0
-202 567 203 0
203 -525 -568 0
203 -524 568 0
-203 524 568 0
-203 525 -568 0
204 -527 -568 0
204 -526 568 0
-204 526 568 0
-204 527 -568 0
205 567 -206 0
205 -567 -207 0
-205 -567 207 0
-205 567 206 0
206 -529 -568 0
206 -528 568 0
-206 528 568 0
-206 529 -568 0
207 -531 -568 0
207 -530 568 0
-207 530 568 0
-207 531 -568 0
208 566 -209 0
208 -566 -212 0
-208 -566 212 0
-208 566 209 0
209 567 -210 0
209 -567 -211 0
-209 -567 211 0
-209 567 210 0
210 -533 -568 0
210 -532 568 0
-210 532 568 0
-210 533 -568 0
211 -535 -568 0
211 -534 568 0
-211 534 568 0
-211 535 -568 0
212 -536 567 568 0
-212 536 0
-212 -568 0
-212 -567 0
213 -564 144 -229 0
213 564 144 -214 0
-213 -144 0
-213 -564 229 0
-213 564 214 0
-214 565 215 0
-214 -565 222 0
214 -565 -222 0
214 565 -215 0
-215 566 219 0
-215 -566 216 0
215 -566 -216 0
215 566 -219 0
216 567 -217 0
216 -567 -218 0
-216 -567 218 0
-216 567 217 0
217 -514 -568 0
217 -513 568 0
-217 513 568 0
-217 514 -568 0
218 -516 -568 0
218 -515 568 0
-218 515 568 0
-218 516 -568 0
219 567 -220 0
219 -567 -221 0
-219 -567 221 0
-219 567 220 0
220 -510 -568 0
220 -509 568 0
-220 509 568 0
-220 510 -568 0
221 -512 -568 0
221 -511 568 0
-221 511 568 0
-221 512 -568 0
222 566 -223 0
222 -566 -226 0
-222 -566 226 0
-222 566 223 0
223 567 -224 0
223 -567 -225 0
-223 -567 225 0
-223 567 224 0
224 -518 -568 0
224 -517 568 0
-224 517 568 0
-224 518 -568 0
225 -520 -568 0
225 -519 568 0
-225 519 568 0
-225 520 -568 0
226 567 -227 0
226 -567 -228 0
-226 -567 228 0
-226 567 227 0
227 -522 -568 0
227 -521 568 0
-227 521 568 0
-227 522 -568 0
228 -524 -568 0
228 -523 568 0
-228 523 568 0
-228 524 -568 0
229 565 -230 0
229 -565 -237 0
-229 -565 237 0
-229 565 230 0
230 566 -231 0
230 -566 -234 0
-230 -566 234 0
-230 566 231 0
231 567 -232 0
231 -567 -233 0
-231 -567 233 0
-231 567 232 0
232 -526 -568 0
232 -525 568 0
-232 525 568 0
-232 526 -568 0
233 -528 -568 0
233 -527 568 0
-233 527 568 0
-233 528 -568 0
234 567 -235 0
234 -567 -236 0
-234 -567 236 0
-234 567 235 0
235 -530 -568 0
235 -529 568 0
-235 529 568 0
-235 530 -568 0
236 -532 -568 0
236 -531 568 0
-236 531 568 0
-236 532 -568 0
237 566 -238 0
-237 -566 0
-237 238 0
238 567 -239 0
238 -567 -240 0
-238 -567 240 0
-238 567 239 0
239 -534 -568 0
239 -533 568 0
-239 533 568 0
-239 534 -568 0
240 -536 -568 0
240 -535 568 0
-240 535 568 0
-240 536 -568 0
241 -536 -242 0
241 536 -256 0
-241 536 256 0
-241 -536 242 0
242 -564 144 -250 0
242 564 144 -243 0
-242 -144 0
-242 -564 250 0
-242 564 243 0
-243 565 244 0
-243 -565 247 0
243 -565 -247 0
243 565 -244 0
-244 566 246 0
-244 -566 245 0
244 -566 -245 0
244 566 -246 0
245 567 -192 0
245 -567 -195 0
-245 -567 195 0
-245 567 192 0
246 567 -188 0
246 -567 -191 0
-246 -567 191 0
-246 567 188 0
247 566 -248 0
247 -566 -249 0
-247 -566 249 0
-247 566 248 0
248 567 -196 0
248 -567 -198 0
-248 -567 198 0
-248 567 196 0
249 567 -199 0
249 -567 -203 0
-249 -567 203 0
-249 567 199 0
250 565 -251 0
250 -565 -254 0
-250 -565 254 0
-250 565 251 0
251 566 -252 0
251 -566 -253 0
-251 -566 253 0
-251 566 252 0
252 567 -204 0
252 -567 -206 0
-252 -567 206 0
-252 567 204 0
253 567 -207 0
253 -567 -210 0
-253 -567 210 0
-253 567 207 0
254 566 -255 0
-254 -566 0
-254 255 0
255 567 -211 0
255 -536 -567 568 0
-255 567 211 0
-255 -567 -568 0
-255 536 -567 0
256 -564 144 -264 0
256 564 144 -257 0
-256 -144 0
-256 -564 264 0
-256 564 257 0
-257 565 258 0
-257 -565 261 0
257 -565 -261 0
257 565 -258 0
-258 566 260 0
-258 -566 259 0
258 -566 -259 0
258 566 -260 0
259 567 -218 0
259 -567 -224 0
-259 -567 224 0
-259 567 218 0
260 -567 -217 0
260 567 -221 0
-260 567 221 0
-260 -567 217 0
261 566 -262 0
261 -566 -263 0
-261 -566 263 0
-261 566 262 0
262 567 -225 0
262 -567 -227 0
-262 -567 227 0
-262 567 225 0
263 567 -228 0
263 -567 -232 0
-263 -567 232 0
-263 567 228 0
264 565 -265 0
264 -565 -268 0
-264 -565 268 0
-264 565 265 0
265 566 -266 0
265 -566 -267 0
-265 -566 267 0
-265 566 266 0
266 567 -233 0
266 -567 -235 0
-266 -567 235 0
-266 567 233 0
267 567 -236 0
267 -567 -239 0
-267 -567 239 0
-267 567 236 0
268 566 -269 0
-268 -566 0
-268 269 0
269 -535 567 568 0
269 -536 567 -568 0
-269 -567 0
-269 536 -568 0
-269 535 568 0
270 -535 -271 0
270 535 -285 0
-270 535 285 0
-270 -535 271 0
271 -536 -272 0
271 536 -279 0
-271 536 279 0
-271 -536 272 0
272 -564 144 -276 0
272 564 144 -273 0
-272 -144 0
-272 -564 276 0
-272 564 273 0
-273 565 274 0
-273 -565 275 0
273 -565 -275 0
273 565 -274 0
-274 -566 194 0
-274 566 190 0
274 566 -190 0
274 -566 -194 0
275 566 -197 0
275 -566 -202 0
-275 -566 202 0
-275 566 197 0
276 565 -277 0
276 -565 -278 0
-276 -565 278 0
-276 565 277 0
277 566 -205 0
277 -566 -209 0
-277 -566 209 0
-277 566 205 0
278 -536 566 567 568 0
-278 -568 0
-278 -567 0
-278 536 0
-278 -566 0
279 -564 144 -283 0
279 564 144 -280 0
-279 -144 0
-279 -564 283 0
-279 564 280 0
280 565 -281 0
280 -565 -282 0
-280 -565 282 0
-280 565 281 0
281 566 -216 0
281 -566 -223 0
-281 -566 223 0
-281 566 216 0
282 566 -226 0
282 -566 -231 0
-282 -566 231 0
-282 566 226 0
283 565 -284 0
-283 -565 0
-283 284 0
284 566 -234 0
284 -566 -238 0
-284 -566 238 0
-284 566 234 0
285 -536 -286 0
285 536 -292 0
-285 536 292 0
-285 -536 286 0
286 -564 144 -290 0
286 564 144 -287 0
-286 -144 0
-286 -564 290 0
-286 564 287 0
287 565 -288 0
287 -565 -289 0
-287 -565 289 0
-287 565 288 0
288 566 -245 0
288 -566 -248 0
-288 -566 248 0
-288 566 245 0
289 566 -249 0
289 -566 -252 0
-289 -566 252 0
-289 566 249 0
290 565 -291 0
-290 -565 0
-290 291 0
291 566 -253 0
291 -566 -255 0
-291 -566 255 0
-291 566 253 0
292 -564 144 -296 0
292 564 144 -293 0
-292 -144 0
-292 -564 296 0
-292 564 293 0
293 565 -294 0
293 -565 -295 0
-293 -565 295 0
-293 565 294 0
294 566 -259 0
294 -566 -262 0
-294 -566 262 0
-294 566 259 0
295 566 -263 0
295 -566 -266 0
-295 -566 266 0
-295 566 263 0
296 565 -297 0
-296 -565 0
-296 297 0
297 566 -267 0
297 -566 -269 0
-297 -566 269 0
-297 566 267 0
298 -534 535 306 0
298 -534 -535 299 0
-298 534 0
-298 -535 -299 0
-298 535 -306 0
299 -536 -300 0
299 536 -303 0
-299 536 303 0
-299 -536 300 0
300 -564 144 -302 0
300 564 144 -301 0
-300 -144 0
-300 -564 302 0
-300 564 301 0
301 565 -193 0
301 -565 -201 0
-301 -565 201 0
-301 565 193 0
302 565 -208 0
-302 -565 0
-302 208 0
303 -564 144 -305 0
303 564 144 -304 0
-303 -144 0
-303 -564 305 0
-303 564 304 0
304 565 -222 0
304 -565 -230 0
-304 -565 230 0
-304 565 222 0
305 565 -237 0
-305 -565 0
-305 237 0
306 -536 -307 0
306 536 -310 0
-306 536 310 0
-306 -536 307 0
307 -564 144 -309 0
307 564 144 -308 0
-307 -144 0
-307 -564 309 0
-307 564 308 0
308 565 -247 0
308 -565 -251 0
-308 -565 251 0
-308 565 247 0
309 565 -254 0
-309 -565 0
-309 254 0
310 -564 144 -312 0
310 564 144 -311 0
-310 -144 0
-310 -564 312 0
-310 564 311 0
311 565 -261 0
311 -565 -265 0
-311 -565 265 0
-311 565 261 0
312 565 -268 0
-312 -565 0
-312 268 0
-313 534 -535 314 0
-313 534 535 321 0
313 -534 0
313 -535 -314 0
313 535 -321 0
314 -536 -315 0
314 536 -318 0
-314 536 318 0
-314 -536 315 0
315 -564 144 -317 0
315 564 144 -316 0
-315 -144 0
-315 -564 317 0
-315 564 316 0
316 565 -275 0
316 -565 -277 0
-316 -565 277 0
-316 565 275 0
317 565 -278 0
-317 -565 0
-317 278 0
318 319 -320 0
-318 -319 0
-318 320 0
-319 564 144 0
319 -564 0
319 -144 0
320 565 -282 0
320 -565 -284 0
-320 -565 284 0
-320 565 282 0
321 -536 -322 0
321 536 -324 0
-321 536 324 0
-321 -536 322 0
322 319 -323 0
-322 -319 0
-322 323 0
323 565 -289 0
323 -565 -291 0
-323 -565 291 0
-323 565 289 0
324 319 -325 0
-324 -319 0
-324 325 0
325 565 -295 0
325 -565 -297 0
-325 -565 297 0
-325 565 295 0
326 533 -341 0
326 -533 327 -334 0
-326 -533 -327 0
-326 533 341 0
-326 -533 334 0
327 -534 535 331 0
327 -534 -535 328 0
-327 534 0
-327 -535 -328 0
-327 535 -331 0
328 -536 -329 0
328 536 -330 0
-328 536 330 0
-328 -536 329 0
329 -200 319 0
-329 200 0
-329 -319 0
330 -229 319 0
-330 229 0
-330 -319 0
331 -536 -332 0
331 536 -333 0
-331 536 333 0
-331 -536 332 0
332 -250 319 0
-332 250 0
-332 -319 0
333 -264 319 0
-333 264 0
-333 -319 0
-334 534 -535 335 0
-334 534 535 338 0
334 -534 0
334 -535 -335 0
334 535 -338 0
335 -536 -336 0
335 536 -337 0
-335 536 337 0
-335 -536 336 0
336 -276 319 0
-336 276 0
-336 -319 0
337 -283 319 0
-337 283 0
-337 -319 0
338 -536 -339 0
338 536 -340 0
-338 536 340 0
-338 -536 339 0
339 -290 319 0
-339 290 0
-339 -319 0
340 -296 319 0
-340 296 0
-340 -319 0
341 -534 -342 0
341 534 -535 -349 0
-341 -534 342 0
-341 534 535 0
-341 534 349 0
342 -535 -343 0
342 535 -346 0
-342 535 346 0
-342 -535 343 0
343 -536 -344 0
343 536 -345 0
-343 536 345 0
-343 -536 344 0
344 -302 319 0
-344 302 0
-344 -319 0
345 -305 319 0
-345 305 0
-345 -319 0
346 -536 -347 0
346 536 -348 0
-346 536 348 0
-346 -536 347 0
347 -309 319 0
-347 309 0
-347 -319 0
348 -312 319 0
-348 312 0
-348 -319 0
349 -317 319 0
-349 317 0
-349 -319 0
350 -564 144 -371 0
350 564 144 -351 0
-350 -144 0
-350 -564 371 0
-350 564 351 0
351 565 -352 0
351 -565 -365 368 0
-351 -565 365 0
-351 565 352 0
-351 -565 -368 0
352 566 -353 0
352 -566 -362 0
-352 -566 362 0
-352 566 353 0
353 567 -354 0
353 -567 -361 0
-353 -567 361 0
-353 567 354 0
354 -568 -9 0
354 568 -355 0
-354 568 355 0
-354 -568 9 0
355 532 -10 -142 0
355 -532 -10 -356 0
-355 10 0
-355 -532 356 0
-355 532 142 0
-356 -533 357 0
-356 533 360 0
356 -533 -357 0
356 533 -360 0
-357 -534 358 0
-357 534 89 0
357 534 -89 0
357 -534 -358 0
-358 -535 359 0
-358 535 54 0
358 535 -54 0
358 -535 -359 0
359 -508 536 0
359 -507 -536 0
-359 508 536 0
-359 507 -536 0
360 -534 -88 0
360 534 -91 0
-360 534 91 0
-360 -534 88 0
361 568 -47 0
361 -568 -73 0
-361 -568 73 0
-361 568 47 0
362 567 -363 0
362 -567 -364 0
-362 -567 364 0
-362 567 363 0
363 568 -85 0
363 -568 -100 0
-363 -568 100 0
-363 568 85 0
364 568 -106 0
364 -568 -111 0
-364 -568 111 0
-364 568 106 0
-365 566 -567 367 0
-365 566 567 366 0
365 -566 0
365 -567 -367 0
365 567 -366 0
366 568 -114 0
366 -568 -118 0
-366 -568 118 0
-366 568 114 0
367 568 -120 0
367 -568 -123 0
-367 -568 123 0
-367 568 120 0
368 -566 -567 370 0
368 -566 567 369 0
-368 566 0
-368 -567 -370 0
-368 567 -369 0
369 568 -126 0
369 -568 -131 0
-369 -568 131 0
-369 568 126 0
370 568 -133 0
370 -568 -138 0
-370 -568 138 0
-370 568 133 0
371 -565 -379 0
371 565 -372 375 0
-371 565 372 0
-371 -565 379 0
-371 565 -375 0
-372 566 -567 374 0
-372 566 567 373 0
372 -566 0
372 -567 -374 0
372 567 -373 0
373 568 -141 0
373 -568 -158 0
-373 -568 158 0
-373 568 141 0
374 568 -159 0
374 -568 -161 0
-374 -568 161 0
-374 568 159 0
375 -566 -567 377 0
375 -566 567 376 0
-375 566 0
-375 -567 -377 0
-375 567 -376 0
376 568 -162 0
376 -568 -165 0
-376 -568 165 0
-376 568 162 0
377 -169 -378 0
377 568 -378 0
-377 378 0
-377 -568 169 0
-378 568 167 0
378 -568 0
378 -167 0
379 566 -380 0
379 -566 567 -177 0
-379 -566 -567 0
-379 566 380 0
-379 -566 177 0
380 567 -381 0
380 -567 -382 0
-380 -567 382 0
-380 567 381 0
381 -173 -378 0
381 568 -378 0
-381 378 0
-381 -568 173 0
382 568 -174 0
382 -568 -176 0
-382 -568 176 0
-382 568 174 0
383 532 -10 -403 0
383 -532 -10 -384 0
-383 10 0
-383 -532 384 0
-383 532 403 0
384 -533 -385 0
384 533 397 -400 0
-384 533 400 0
-384 -533 385 0
-384 533 -397 0
385 -534 -386 0
385 534 -394 0
-385 534 394 0
-385 -534 386 0
386 -535 -387 0
386 535 -393 0
-386 535 393 0
-386 -535 387 0
387 536 -184 0
387 -536 -388 0
-387 -536 388 0
-387 536 184 0
388 564 144 -389 0
388 -564 144 -325 0
-388 -144 0
-388 564 389 0
-388 -564 325 0
-389 -565 294 0
-389 565 390 0
389 -565 -294 0
389 565 -390 0
-390 -566 260 0
-390 566 391 0
390 -566 -260 0
390 566 -391 0
-391 567 392 0
-391 -567 220 0
391 -567 -220 0
391 567 -392 0
392 -508 -568 0
392 -507 568 0
-392 507 568 0
-392 508 -568 0
393 -536 -213 0
393 536 -242 0
-393 536 242 0
-393 -536 213 0
394 -535 -395 0
394 535 -396 0
-394 535 396 0
-394 -535 395 0
395 -536 -256 0
395 536 -272 0
-395 536 272 0
-395 -536 256 0
396 -536 -279 0
396 536 -286 0
-396 536 286 0
-396 -536 279 0
397 -534 535 399 0
397 -534 -535 398 0
-397 534 0
-397 -535 -398 0
-397 535 -399 0
398 -536 -292 0
398 536 -300 0
-398 536 300 0
-398 -536 292 0
399 -536 -303 0
399 536 -307 0
-399 536 307 0
-399 -536 303 0
-400 534 -535 401 0
-400 534 535 402 0
400 -534 0
400 -535 -401 0
400 535 -402 0
401 -536 -310 0
401 536 -315 0
-401 536 315 0
-401 -536 310 0
402 -536 -318 0
402 536 -322 0
-402 536 322 0
-402 -536 318 0
403 533 -410 0
403 -533 404 -407 0
-403 -533 -404 0
-403 533 410 0
-403 -533 407 0
404 -534 535 406 0
404 -534 -535 405 0
-404 534 0
-404 -535 -405 0
-404 535 -406 0
405 -536 -324 0
405 536 -329 0
-405 536 329 0
-405 -536 324 0
406 -536 -330 0
406 536 -332 0
-406 536 332 0
-406 -536 330 0
-407 534 -535 408 0
-407 534 535 409 0
407 -534 0
407 -535 -408 0
407 535 -409 0
408 -536 -333 0
408 536 -336 0
-408 536 336 0
-408 -536 333 0
409 -536 -337 0
409 536 -339 0
-409 536 339 0
-409 -536 337 0
410 -534 -411 0
410 534 -535 -414 0
-410 -534 411 0
-410 534 535 0
-410 534 414 0
411 -535 -412 0
411 535 -413 0
-411 535 413 0
-411 -535 412 0
412 -536 -340 0
412 536 -344 0
-412 536 344 0
-412 -536 340 0
413 -536 -345 0
413 536 -347 0
-413 536 347 0
-413 -536 345 0
414 -536 -348 0
-414 536 0
-414 348 0
-415 416 429 -442 -452 0
-415 -416 -429 -442 -452 0
-415 416 429 442 452 0
-415 -416 -429 442 452 0
415 416 -429 0
415 -416 429 0
415 442 -452 0
415 -442 452 0
416 -564 144 -424 0
416 564 144 -417 0
-416 -144 0
-416 -564 424 0
-416 564 417 0
417 565 -418 0
417 -565 -421 0
-417 -565 421 0
-417 565 418 0
418 566 -419 0
418 -566 -420 0
-418 -566 420 0
-418 566 419 0
419 567 -72 0
419 -567 -99 0
-419 -567 99 0
-419 567 72 0
420 567 -110 0
420 -567 -117 0
-420 -567 117 0
-420 567 110 0
421 566 -422 0
421 -566 -423 0
-421 -566 423 0
-421 566 422 0
422 567 -122 0
422 -567 -130 0
-422 -567 130 0
-422 567 122 0
423 567 -137 0
423 -567 -157 0
-423 -567 157 0
-423 567 137 0
424 565 -425 0
424 -565 566 -428 0
-424 -565 -566 0
-424 565 425 0
-424 -565 428 0
425 566 -426 0
425 -566 -427 0
-425 -566 427 0
-425 566 426 0
426 567 -160 0
426 -567 -164 0
-426 -567 164 0
-426 567 160 0
427 567 -168 0
427 -567 -172 0
-427 -567 172 0
-427 567 168 0
428 567 -175 0
428 -567 -178 0
-428 -567 178 0
-428 567 175 0
429 532 -10 -437 0
429 -532 -10 -430 0
-429 10 0
-429 -532 430 0
-429 532 437 0
430 -533 -431 0
430 533 -434 0
-430 533 434 0
-430 -533 431 0
431 -534 -432 0
431 534 -433 0
-431 534 433 0
-431 -534 432 0
432 -535 -241 0
432 535 -271 0
-432 535 271 0
-432 -535 241 0
433 -535 -285 0
433 535 -299 0
-433 535 299 0
-433 -535 285 0
434 -534 -435 0
434 534 -436 0
-434 534 436 0
-434 -534 435 0
435 -535 -306 0
435 535 -314 0
-435 535 314 0
-435 -535 306 0
436 -535 -321 0
436 535 -328 0
-436 535 328 0
-436 -535 321 0
437 -533 -438 0
437 533 -534 -441 0
-437 -533 438 0
-437 533 534 0
-437 533 441 0
438 -534 -439 0
438 534 -440 0
-438 534 440 0
-438 -534 439 0
439 -535 -331 0
439 535 -335 0
-439 535 335 0
-439 -535 331 0
440 -535 -338 0
440 535 -343 0
-440 535 343 0
-440 -535 338 0
441 -535 -346 0
441 535 -349 0
-441 535 349 0
-441 -535 346 0
442 -564 144 -449 0
442 564 144 -443 0
-442 -144 0
-442 -564 449 0
-442 564 443 0
443 565 -444 0
443 -565 -448 0
-443 -565 448 0
-443 565 444 0
444 -566 -419 0
444 566 -445 0
-444 566 445 0
-444 -566 419 0
445 -567 -8 0
445 567 -446 0
-445 567 446 0
-445 -567 8 0
446 -568 -355 0
446 568 -447 0
-446 568 447 0
-446 -568 355 0
447 -532 -10 0
447 -10 -139 0
-447 10 0
-447 532 139 0
448 566 -420 0
448 -566 -422 0
-448 -566 422 0
-448 566 420 0
449 565 -450 0
449 -565 -451 0
-449 -565 451 0
-449 565 450 0
450 566 -423 0
450 -566 -426 0
-450 -566 426 0
-450 566 423 0
451 566 -427 0
451 -566 -428 0
-451 -566 428 0
-451 566 427 0
452 532 -10 -464 0
452 -532 -10 -453 0
-452 10 0
-452 -532 453 0
-452 532 464 0
453 533 -454 0
453 -533 -455 0
-453 -533 455 0
-453 533 454 0
454 -534 -433 0
454 534 -435 0
-454 534 435 0
-454 -534 433 0
455 534 -432 0
455 -534 456 -458 0
-455 -534 -456 0
-455 534 432 0
-455 -534 458 0
456 -457 388 0
-456 457 0
-456 -388 0
457 -535 536 0
-457 535 0
-457 -536 0
458 -535 536 0
458 535 -183 0
458 -535 -459 0
-458 535 183 0
-458 -535 -536 459 0
459 564 144 -460 0
459 -564 144 -323 0
-459 -144 0
-459 564 460 0
-459 -564 323 0
-460 -565 288 0
-460 565 461 0
460 -565 -288 0
460 565 -461 0
-461 -566 246 0
-461 566 462 0
461 -566 -246 0
461 566 -462 0
-462 567 463 0
-462 -567 189 0
462 -567 -189 0
462 567 -463 0
463 -507 -568 0
463 -506 568 0
-463 506 568 0
-463 507 -568 0
464 -533 -465 0
464 533 -466 0
-464 533 466 0
-464 -533 465 0
465 -534 -436 0
465 534 -439 0
-465 534 439 0
-465 -534 436 0
466 -534 -440 0
466 534 -441 0
-466 534 441 0
-466 -534 440 0
467 564 144 -474 0
467 -564 144 -468 0
-467 -144 0
-467 -564 468 0
-467 564 474 0
468 565 -469 0
468 -565 -472 473 0
-468 -565 472 0
-468 565 469 0
-468 -565 -473 0
469 566 -470 0
469 -566 -471 0
-469 -566 471 0
-469 566 470 0
470 567 -370 0
470 -567 -373 0
-470 -567 373 0
-470 567 370 0
471 567 -374 0
471 -567 -376 0
-471 -567 376 0
-471 567 374 0
-472 566 -567 381 0
-472 566 567 377 0
472 -566 0
472 -567 -381 0
472 567 -377 0
473 -566 567 382 0
473 -566 -567 177 0
-473 566 0
-473 -567 -177 0
-473 567 -382 0
474 -565 -475 0
474 565 -478 485 0
-474 565 -485 0
-474 -565 475 0
-474 565 478 0
475 566 -476 0
475 -566 -477 0
-475 -566 477 0
-475 566 476 0
476 567 -364 0
476 -567 -366 0
-476 -567 366 0
-476 567 364 0
477 567 -367 0
477 -567 -369 0
-477 -567 369 0
-477 567 367 0
-478 566 567 479 0
-478 566 -567 354 0
478 -566 0
478 -567 -354 0
478 567 -479 0
-479 -568 447 0
-479 568 480 0
-479 568 10 0
479 -568 -447 0
479 568 -10 -480 0
-480 532 135 0
-480 -532 481 482 0
480 532 -135 0
480 -532 -482 0
480 -532 -481 0
481 533 534 -57 0
481 533 -534 -50 0
-481 -533 0
-481 -534 50 0
-481 534 57 0
482 -533 534 -53 0
482 -533 -534 -483 0
-482 533 0
-482 -534 483 0
-482 534 53 0
-483 44 484 0
-483 505 484 0
483 -484 0
483 -505 -44 0
-484 535 359 0
-484 -535 -536 0
-484 506 -535 0
484 535 -359 0
484 -506 -535 536 0
485 -566 -567 363 0
485 -566 567 361 0
-485 566 0
-485 -567 -363 0
-485 567 -361 0
486 -532 -10 -493 0
486 532 -10 -487 0
-486 10 0
-486 -532 493 0
-486 532 487 0
487 -533 -488 0
487 533 491 -492 0
-487 533 492 0
-487 -533 488 0
-487 533 -491 0
488 -534 -489 0
488 534 -490 0
-488 534 490 0
-488 -534 489 0
489 -535 -402 0
489 535 -405 0
-489 535 405 0
-489 -535 402 0
490 -535 -406 0
490 535 -408 0
-490 535 408 0
-490 -535 406 0
491 -534 535 412 0
491 -534 -535 409 0
-491 534 0
-491 -535 -409 0
-491 535 -412 0
-492 534 -535 413 0
-492 534 535 414 0
492 -534 0
492 -535 -413 0
492 535 -414 0
493 -533 -494 0
493 533 503 -504 0
-493 533 504 0
-493 -533 494 0
-493 533 -503 0
494 -534 -495 0
494 534 -502 0
494 -534 -501 0
-494 534 502 0
-494 -534 495 501 0
495 564 -496 -497 0
495 -564 -320 -496 0
-495 496 0
-495 -564 320 0
-495 564 497 0
496 -44 144 0
-496 44 0
-496 -144 0
497 -565 -281 0
497 565 -498 0
-497 565 498 0
-497 -565 281 0
498 -566 -219 0
498 566 -499 0
-498 -566 219 0
-498 566 499 0
-499 567 500 0
-499 -567 392 0
499 -567 -392 0
499 567 -500 0
500 -506 -568 0
500 -505 568 0
-500 505 568 0
-500 506 -568 0
-501 -535 -536 0
-501 535 387 0
-501 -535 459 0
501 535 -387 0
501 -535 536 -459 0
502 -535 -393 0
502 535 -395 0
-502 535 395 0
-502 -535 393 0
503 -534 535 398 0
503 -534 -535 396 0
-503 534 0
-503 -535 -396 0
-503 535 -398 0
-504 534 -535 399 0
-504 534 535 401 0
504 -534 0
504 -535 -399 0
504 535 -401 0
-569 0
2 0

